; benchmark generated from python API
(set-info :status unknown)
(declare-fun R_E1_V4 () Bool)
(declare-fun W_S1_V4 () Bool)
(declare-fun R_E1_V5 () Bool)
(declare-fun W_S1_V5 () Bool)
(declare-fun W_S2_V5 () Bool)
(declare-fun W_S2_V2 () Bool)
(declare-fun W_S2_V3 () Bool)
(declare-fun W_S2_V1 () Bool)
(declare-fun R_S2_V4 () Bool)
(declare-fun R_S2_V5 () Bool)
(declare-fun R_S2_V2 () Bool)
(declare-fun R_S2_V3 () Bool)
(declare-fun R_S2_V1 () Bool)
(declare-fun R_S1_V4 () Bool)
(declare-fun R_S1_V5 () Bool)
(declare-fun R_S1_V2 () Bool)
(declare-fun R_S1_V3 () Bool)
(declare-fun R_S1_V1 () Bool)
(declare-fun R_E1_V2 () Bool)
(declare-fun DISJ_W_S2_R_E1 () Bool)
(declare-fun DISJ_W_S2_R_S2 () Bool)
(declare-fun DISJ_W_S2_R_S1 () Bool)
(declare-fun DISJ_W_S1_W_S2 () Bool)
(declare-fun R_E1_V3 () Bool)
(declare-fun DISJ_W_S1_R_S2 () Bool)
(declare-fun DISJ_W_S1_R_S1 () Bool)
(declare-fun W_S2_V4 () Bool)
(declare-fun W_S1_V3 () Bool)
(declare-fun W_S1_V2 () Bool)
(declare-fun W_S1_V1 () Bool)
(declare-fun R_E1_V1 () Bool)
(declare-fun DISJ_W_S1_R_E1 () Bool)
(assert
 (let (($x191 (not (and W_S1_V4 R_E1_V4))))
 (let (($x2612 (not (and W_S1_V5 R_E1_V5))))
 (let (($x92 (forall ((V3_0 Int) )(forall ((V2_0 Int) )(forall ((V5_0 Int) )(forall ((V4_0 Int) )(forall ((MW_S1_V1 Bool) )(forall ((MW_S1_V3 Bool) )(forall ((MW_S1_V2 Bool) )(forall ((MW_S1_V5 Bool) )(forall ((MW_S1_V4 Bool) )(forall ((MW_S2_V1 Bool) )(forall ((MW_S2_V3 Bool) )(forall ((MW_S2_V2 Bool) )(forall ((MW_S2_V5 Bool) )(forall ((MW_S2_V4 Bool) )(forall ((S1_V1_!6074 Int) )(forall ((S1_V1_!6084 Int) )(forall ((S1_V1_!6095 Int) )(forall ((S1_V1_!6100 Int) )(forall ((S2_V5_!6082 Int) )(forall ((S2_V5_!6092 Int) )(forall ((S2_V5_!6109 Int) )(forall ((S2_V5_!6114 Int) )(forall ((S1_V3_!6075 Int) )(forall ((S1_V3_!6085 Int) )(forall ((S1_V3_!6096 Int) )(forall ((S1_V3_!6101 Int) )(forall ((S1_V2_!6076 Int) )(forall ((S1_V2_!6086 Int) )(forall ((S1_V2_!6097 Int) )(forall ((S1_V2_!6102 Int) )(forall ((E1_!6073 Int) )(forall ((E1_!6094 Int) )(forall ((E1_!6105 Int) )(forall ((S2_V4_!6083 Int) )(forall ((S2_V4_!6093 Int) )(forall ((S2_V4_!6110 Int) )(forall ((S2_V4_!6115 Int) )(forall ((S1_V5_!6077 Int) )(forall ((S1_V5_!6087 Int) )(forall ((S1_V5_!6098 Int) )(forall ((S1_V5_!6103 Int) )(forall ((S2_V1_!6079 Int) )(forall ((S2_V1_!6089 Int) )(forall ((S2_V1_!6106 Int) )(forall ((S2_V1_!6111 Int) )(forall ((S1_V4_!6078 Int) )(forall ((S1_V4_!6088 Int) )(forall ((S1_V4_!6099 Int) )(forall ((S1_V4_!6104 Int) )(forall ((S2_V2_!6081 Int) )(forall ((S2_V2_!6091 Int) )(forall ((S2_V2_!6108 Int) )(forall ((S2_V2_!6113 Int) )(forall ((S2_V3_!6080 Int) )(forall ((S2_V3_!6090 Int) )(forall ((S2_V3_!6107 Int) )(forall ((S2_V3_!6112 Int) )(let (($x2061 (= (ite MW_S2_V4 S2_V4_!6093 (ite MW_S1_V4 S1_V4_!6088 (ite MW_S2_V4 S2_V4_!6083 (ite MW_S1_V4 S1_V4_!6078 V4_0)))) (ite MW_S2_V4 S2_V4_!6115 (ite MW_S1_V4 S1_V4_!6104 V4_0)))))
 (let (($x2311 (= (ite MW_S2_V5 S2_V5_!6092 (ite MW_S1_V5 S1_V5_!6087 (ite MW_S2_V5 S2_V5_!6082 (ite MW_S1_V5 S1_V5_!6077 V5_0)))) (ite MW_S2_V5 S2_V5_!6114 (ite MW_S1_V5 S1_V5_!6103 V5_0)))))
 (let ((?x4881 (ite MW_S1_V2 S1_V2_!6102 V2_0)))
 (let ((?x6072 (ite MW_S2_V2 S2_V2_!6113 ?x4881)))
 (let ((?x181 (ite MW_S1_V2 S1_V2_!6076 V2_0)))
 (let ((?x3733 (ite MW_S2_V2 S2_V2_!6081 ?x181)))
 (let ((?x1316 (ite MW_S1_V2 S1_V2_!6086 ?x3733)))
 (let ((?x3145 (ite MW_S2_V2 S2_V2_!6091 ?x1316)))
 (let (($x2525 (= (ite MW_S2_V3 S2_V3_!6090 (ite MW_S1_V3 S1_V3_!6085 (ite MW_S2_V3 S2_V3_!6080 (ite MW_S1_V3 S1_V3_!6075 V3_0)))) (ite MW_S2_V3 S2_V3_!6112 (ite MW_S1_V3 S1_V3_!6101 V3_0)))))
 (let ((?x559 (ite MW_S2_V1 S2_V1_!6106 E1_!6105)))
 (let ((?x5494 (+ 1 ?x559)))
 (let ((?x3583 (ite MW_S2_V1 S2_V1_!6111 ?x5494)))
 (let ((?x931 (ite MW_S1_V1 S1_V1_!6074 E1_!6073)))
 (let ((?x4275 (ite MW_S2_V1 S2_V1_!6079 ?x931)))
 (let ((?x1218 (+ 1 ?x4275)))
 (let ((?x3405 (ite MW_S1_V1 S1_V1_!6084 ?x1218)))
 (let ((?x5887 (ite MW_S2_V1 S2_V1_!6089 ?x3405)))
 (let (($x1496 (>= (ite MW_S1_V1 S1_V1_!6100 (+ 1 (ite MW_S1_V1 S1_V1_!6095 E1_!6094))) (+ (- 1) ?x4881))))
 (let (($x565 (and (not (<= V2_0 E1_!6073)) (not (<= ?x3733 ?x1218)) (>= ?x5887 (+ (- 1) ?x3145)) (not (<= V2_0 E1_!6094)) (not (<= (ite MW_S1_V2 S1_V2_!6097 V2_0) (+ 1 (ite MW_S1_V1 S1_V1_!6095 E1_!6094)))) $x1496 (not (<= ?x4881 E1_!6105)) (not (<= (ite MW_S2_V2 S2_V2_!6108 ?x4881) ?x5494)) (>= ?x3583 (+ (- 1) ?x6072)))))
 (let (($x5803 (= S2_V3_!6112 S2_V3_!6090)))
 (let ((?x2267 (ite MW_S1_V4 S1_V4_!6078 V4_0)))
 (let ((?x2695 (ite MW_S2_V4 S2_V4_!6083 ?x2267)))
 (let ((?x505 (ite MW_S1_V4 S1_V4_!6088 ?x2695)))
 (let ((?x5086 (ite MW_S1_V4 S1_V4_!6104 V4_0)))
 (let ((?x2981 (ite MW_S2_V4 S2_V4_!6110 ?x5086)))
 (let (($x1649 (not R_S2_V4)))
 (let ((?x3499 (ite MW_S1_V5 S1_V5_!6077 V5_0)))
 (let ((?x4781 (ite MW_S2_V5 S2_V5_!6082 ?x3499)))
 (let ((?x2092 (ite MW_S1_V5 S1_V5_!6087 ?x4781)))
 (let ((?x972 (ite MW_S1_V5 S1_V5_!6103 V5_0)))
 (let ((?x3285 (ite MW_S2_V5 S2_V5_!6109 ?x972)))
 (let (($x6073 (not R_S2_V5)))
 (let ((?x215 (ite MW_S1_V3 S1_V3_!6075 V3_0)))
 (let ((?x3061 (ite MW_S2_V3 S2_V3_!6080 ?x215)))
 (let ((?x6079 (ite MW_S1_V3 S1_V3_!6085 ?x3061)))
 (let ((?x1892 (ite MW_S1_V3 S1_V3_!6101 V3_0)))
 (let ((?x913 (ite MW_S2_V3 S2_V3_!6107 ?x1892)))
 (let (($x1277 (not R_S2_V3)))
 (let (($x2802 (and (or (not R_S2_V1) (= ?x559 (+ (- 1) ?x3405))) (or $x1277 (= ?x913 ?x6079)) (or (not R_S2_V2) (= (ite MW_S2_V2 S2_V2_!6108 ?x4881) ?x1316)) (or $x6073 (= ?x3285 ?x2092)) (or $x1649 (= ?x2981 ?x505)))))
 (let (($x769 (not $x2802)))
 (let (($x4841 (= S2_V3_!6112 S2_V3_!6080)))
 (let (($x1832 (and (or (not R_S2_V1) (= ?x559 (+ (- 1) ?x931))) (or $x1277 (= ?x913 ?x215)) (or (not R_S2_V2) (= (ite MW_S2_V2 S2_V2_!6108 ?x4881) ?x181)) (or $x6073 (= ?x3285 ?x3499)) (or $x1649 (= ?x2981 ?x2267)))))
 (let (($x989 (not $x1832)))
 (let (($x2826 (= S2_V3_!6107 S2_V3_!6112)))
 (let (($x1813 (and (or (not R_S2_V1) (= E1_!6105 ?x5494)) (or $x1277 (= ?x1892 ?x913)) (or (not R_S2_V2) (= ?x4881 (ite MW_S2_V2 S2_V2_!6108 ?x4881))) (or $x6073 (= ?x972 ?x3285)) (or $x1649 (= ?x5086 ?x2981)))))
 (let (($x2208 (= S2_V3_!6107 S2_V3_!6090)))
 (let (($x477 (and (or (not R_S2_V1) (= E1_!6105 ?x3405)) (or $x1277 (= ?x1892 ?x6079)) (or (not R_S2_V2) (= ?x4881 ?x1316)) (or $x6073 (= ?x972 ?x2092)) (or $x1649 (= ?x5086 ?x505)))))
 (let (($x200 (not $x477)))
 (let (($x1893 (= S2_V3_!6107 S2_V3_!6080)))
 (let (($x3646 (and (or (not R_S2_V1) (= E1_!6105 ?x931)) (or $x1277 (= ?x1892 ?x215)) (or (not R_S2_V2) (= ?x4881 ?x181)) (or $x6073 (= ?x972 ?x3499)) (or $x1649 (= ?x5086 ?x2267)))))
 (let (($x484 (= S2_V3_!6090 S2_V3_!6080)))
 (let (($x3666 (and (or (not R_S2_V1) (= ?x3405 ?x931)) (or $x1277 (= ?x6079 ?x215)) (or (not R_S2_V2) (= ?x1316 ?x181)) (or $x6073 (= ?x2092 ?x3499)) (or $x1649 (= ?x505 ?x2267)))))
 (let (($x2424 (not $x3666)))
 (let (($x2699 (= S2_V2_!6113 S2_V2_!6108)))
 (let (($x2241 (and (or (not R_S2_V1) (= ?x559 (+ (- 1) E1_!6105))) (or $x1277 (= ?x913 ?x1892)) (or (not R_S2_V2) (= (ite MW_S2_V2 S2_V2_!6108 ?x4881) ?x4881)) (or $x6073 (= ?x3285 ?x972)) (or $x1649 (= ?x2981 ?x5086)))))
 (let (($x1345 (not $x2241)))
 (let (($x2020 (= S2_V2_!6091 S2_V2_!6108)))
 (let (($x1170 (and (or (not R_S2_V1) (= ?x3405 E1_!6105)) (or $x1277 (= ?x6079 ?x1892)) (or (not R_S2_V2) (= ?x1316 ?x4881)) (or $x6073 (= ?x2092 ?x972)) (or $x1649 (= ?x505 ?x5086)))))
 (let (($x264 (not $x1170)))
 (let (($x2009 (= S2_V2_!6081 S2_V2_!6113)))
 (let (($x3094 (and (or (not R_S2_V1) (= ?x931 ?x5494)) (or $x1277 (= ?x215 ?x913)) (or (not R_S2_V2) (= ?x181 (ite MW_S2_V2 S2_V2_!6108 ?x4881))) (or $x6073 (= ?x3499 ?x3285)) (or $x1649 (= ?x2267 ?x2981)))))
 (let (($x856 (not $x3094)))
 (let (($x4058 (= S2_V2_!6081 S2_V2_!6108)))
 (let (($x2282 (and (or (not R_S2_V1) (= ?x931 E1_!6105)) (or $x1277 (= ?x215 ?x1892)) (or (not R_S2_V2) (= ?x181 ?x4881)) (or $x6073 (= ?x3499 ?x972)) (or $x1649 (= ?x2267 ?x5086)))))
 (let (($x858 (not $x2282)))
 (let (($x4691 (= S2_V2_!6081 S2_V2_!6091)))
 (let (($x4997 (and (or (not R_S2_V1) (= ?x931 ?x3405)) (or $x1277 (= ?x215 ?x6079)) (or (not R_S2_V2) (= ?x181 ?x1316)) (or $x6073 (= ?x3499 ?x2092)) (or $x1649 (= ?x2267 ?x505)))))
 (let (($x3820 (not $x4997)))
 (let (($x305 (= S1_V4_!6104 S1_V4_!6088)))
 (let (($x741 (and (or (not R_S1_V1) (= (ite MW_S1_V1 S1_V1_!6095 E1_!6094) ?x4275)) (or (not R_S1_V3) (= (ite MW_S1_V3 S1_V3_!6096 V3_0) ?x3061)) (or (not R_S1_V2) (= (ite MW_S1_V2 S1_V2_!6097 V2_0) ?x3733)) (or (not R_S1_V5) (= (ite MW_S1_V5 S1_V5_!6098 V5_0) ?x4781)) (or (not R_S1_V4) (= (ite MW_S1_V4 S1_V4_!6099 V4_0) ?x2695)))))
 (let (($x1188 (not $x741)))
 (let (($x788 (not R_S1_V4)))
 (let (($x2027 (or $x788 (= (ite MW_S1_V4 S1_V4_!6099 V4_0) V4_0))))
 (let (($x5954 (not R_S1_V5)))
 (let (($x3075 (or $x5954 (= (ite MW_S1_V5 S1_V5_!6098 V5_0) V5_0))))
 (let (($x2070 (not R_S1_V2)))
 (let (($x5941 (or $x2070 (= (ite MW_S1_V2 S1_V2_!6097 V2_0) V2_0))))
 (let (($x3712 (not R_S1_V3)))
 (let (($x2673 (or $x3712 (= (ite MW_S1_V3 S1_V3_!6096 V3_0) V3_0))))
 (let (($x723 (and (or (not R_S1_V1) (= (ite MW_S1_V1 S1_V1_!6095 E1_!6094) (+ (- 1) E1_!6073))) $x2673 $x5941 $x3075 $x2027)))
 (let (($x1065 (not $x723)))
 (let (($x2852 (or $x788 (= V4_0 (ite MW_S1_V4 S1_V4_!6099 V4_0)))))
 (let (($x2083 (or $x5954 (= V5_0 (ite MW_S1_V5 S1_V5_!6098 V5_0)))))
 (let (($x1368 (or $x2070 (= V2_0 (ite MW_S1_V2 S1_V2_!6097 V2_0)))))
 (let (($x5060 (or $x3712 (= V3_0 (ite MW_S1_V3 S1_V3_!6096 V3_0)))))
 (let (($x1790 (and (or (not R_S1_V1) (= E1_!6094 (+ 1 (ite MW_S1_V1 S1_V1_!6095 E1_!6094)))) $x5060 $x1368 $x2083 $x2852)))
 (let (($x3234 (not $x1790)))
 (let (($x2368 (= S1_V4_!6099 S1_V4_!6088)))
 (let (($x3571 (or $x788 (= V4_0 ?x2695))))
 (let (($x3858 (or $x5954 (= V5_0 ?x4781))))
 (let (($x6029 (or $x2070 (= V2_0 ?x3733))))
 (let (($x250 (or $x3712 (= V3_0 ?x3061))))
 (let (($x4251 (not (and (or (not R_S1_V1) (= E1_!6094 ?x1218)) $x250 $x6029 $x3858 $x3571))))
 (let (($x1459 (or $x788 (= ?x2695 V4_0))))
 (let (($x4760 (or $x5954 (= ?x4781 V5_0))))
 (let (($x1903 (or $x2070 (= ?x3733 V2_0))))
 (let (($x3976 (or $x3712 (= ?x3061 V3_0))))
 (let (($x5198 (and (or (not R_S1_V1) (= ?x4275 (+ (- 1) E1_!6073))) $x3976 $x1903 $x4760 $x1459)))
 (let (($x485 (not $x5198)))
 (let (($x4698 (= S2_V1_!6089 S2_V1_!6111)))
 (let (($x743 (and (or (not R_S2_V1) (= ?x3405 ?x5494)) (or $x1277 (= ?x6079 ?x913)) (or (not R_S2_V2) (= ?x1316 (ite MW_S2_V2 S2_V2_!6108 ?x4881))) (or $x6073 (= ?x2092 ?x3285)) (or $x1649 (= ?x505 ?x2981)))))
 (let (($x88 (not $x743)))
 (let (($x1409 (= S1_V5_!6103 S1_V5_!6098)))
 (let (($x1816 (and (or (not R_S1_V1) (= (ite MW_S1_V1 S1_V1_!6095 E1_!6094) (+ (- 1) E1_!6094))) $x2673 $x5941 $x3075 $x2027)))
 (let (($x4820 (not $x1816)))
 (let (($x39 (or (not (and (or (not R_S1_V1) (= E1_!6073 ?x1218)) $x250 $x6029 $x3858 $x3571)) (= S1_V5_!6077 S1_V5_!6087))))
 (let (($x5474 (and (or (not R_E1_V2) (= ?x4881 V2_0)) (or (not R_E1_V5) (= ?x972 V5_0)) (or (not R_E1_V4) (= ?x5086 V4_0)))))
 (let (($x2893 (= E1_!6073 E1_!6105)))
 (let (($x2735 (and (or (not R_E1_V2) (= V2_0 ?x4881)) (or (not R_E1_V5) (= V5_0 ?x972)) (or (not R_E1_V4) (= V4_0 ?x5086)))))
 (let (($x5319 (= E1_!6073 E1_!6094)))
 (let (($x3904 (and (or (not R_S1_V1) (= ?x4275 (ite MW_S1_V1 S1_V1_!6095 E1_!6094))) (or $x3712 (= ?x3061 (ite MW_S1_V3 S1_V3_!6096 V3_0))) (or $x2070 (= ?x3733 (ite MW_S1_V2 S1_V2_!6097 V2_0))) (or $x5954 (= ?x4781 (ite MW_S1_V5 S1_V5_!6098 V5_0))) (or $x788 (= ?x2695 (ite MW_S1_V4 S1_V4_!6099 V4_0))))))
 (let (($x5916 (not $x3904)))
 (let (($x3716 (and (or (not R_S1_V1) (= ?x4275 (+ (- 1) E1_!6094))) $x3976 $x1903 $x4760 $x1459)))
 (let (($x1836 (not $x3716)))
 (let (($x3472 (and (or (not R_S1_V1) (= E1_!6073 (+ 1 (ite MW_S1_V1 S1_V1_!6095 E1_!6094)))) $x5060 $x1368 $x2083 $x2852)))
 (let (($x1286 (not $x3472)))
 (let (($x226 (and (or $x1286 (= S1_V1_!6074 S1_V1_!6100)) (or $x485 (= S1_V1_!6084 S1_V1_!6074)) (or $x1836 (= S1_V1_!6084 S1_V1_!6095)) (or $x5916 (= S1_V1_!6084 S1_V1_!6100)) (or (not (or (not R_S1_V1) (= E1_!6094 E1_!6073))) (= S1_V1_!6095 S1_V1_!6074)) (or $x3234 (= S1_V1_!6095 S1_V1_!6100)) (or $x858 (= S2_V5_!6082 S2_V5_!6109)) (or $x856 (= S2_V5_!6082 S2_V5_!6114)) (or $x2424 (= S2_V5_!6092 S2_V5_!6082)) (or $x264 (= S2_V5_!6092 S2_V5_!6109)) (or $x88 (= S2_V5_!6092 S2_V5_!6114)) (or $x1345 (= S2_V5_!6114 S2_V5_!6109)) (or (not (or (not R_S1_V1) $x5319)) (= S1_V3_!6075 S1_V3_!6096)) (or $x485 (= S1_V3_!6085 S1_V3_!6075)) (or $x1836 (= S1_V3_!6085 S1_V3_!6096)) (or $x5916 (= S1_V3_!6085 S1_V3_!6101)) (or $x1065 (= S1_V3_!6101 S1_V3_!6075)) (or $x4820 (= S1_V3_!6101 S1_V3_!6096)) (or $x1286 (= S1_V2_!6076 S1_V2_!6102)) (or $x485 (= S1_V2_!6086 S1_V2_!6076)) (or $x1836 (= S1_V2_!6086 S1_V2_!6097)) (or $x5916 (= S1_V2_!6086 S1_V2_!6102)) (or (not (or (not R_S1_V1) (= E1_!6094 E1_!6073))) (= S1_V2_!6097 S1_V2_!6076)) (or $x3234 (= S1_V2_!6097 S1_V2_!6102)) $x5319 (or (not $x2735) $x2893) (or (not $x5474) (= E1_!6105 E1_!6094)) (or $x3820 (= S2_V4_!6083 S2_V4_!6093)) (or $x858 (= S2_V4_!6083 S2_V4_!6110)) (or $x200 (= S2_V4_!6110 S2_V4_!6093)) (or $x989 (= S2_V4_!6115 S2_V4_!6083)) (or $x769 (= S2_V4_!6115 S2_V4_!6093)) (or $x1345 (= S2_V4_!6115 S2_V4_!6110)) $x39 (or (not (or (not R_S1_V1) $x5319)) (= S1_V5_!6077 S1_V5_!6098)) (or $x4251 (= S1_V5_!6098 S1_V5_!6087)) (or $x1065 (= S1_V5_!6103 S1_V5_!6077)) (or $x1188 (= S1_V5_!6103 S1_V5_!6087)) (or $x4820 $x1409) (or $x3820 (= S2_V1_!6079 S2_V1_!6089)) (or $x858 (= S2_V1_!6079 S2_V1_!6106)) (or $x856 (= S2_V1_!6079 S2_V1_!6111)) (or $x264 (= S2_V1_!6089 S2_V1_!6106)) (or $x88 $x4698) (or $x1345 (= S2_V1_!6111 S2_V1_!6106)) (or $x485 (= S1_V4_!6088 S1_V4_!6078)) (or (not (or (not R_S1_V1) (= E1_!6094 E1_!6073))) (= S1_V4_!6099 S1_V4_!6078)) (or $x4251 $x2368) (or $x3234 (= S1_V4_!6099 S1_V4_!6104)) (or $x1065 (= S1_V4_!6104 S1_V4_!6078)) (or $x1188 $x305) (or $x3820 $x4691) (or $x858 $x4058) (or $x856 $x2009) (or $x264 $x2020) (or $x769 (= S2_V2_!6113 S2_V2_!6091)) (or $x1345 $x2699) (or $x2424 $x484) (or (not $x3646) $x1893) (or $x200 $x2208) (or (not $x1813) $x2826) (or $x989 $x4841) (or $x769 $x5803) (not MW_S1_V1) (not MW_S1_V2) (or (not MW_S1_V5) W_S1_V5) (or (not MW_S1_V4) W_S1_V4) (or (not MW_S2_V1) W_S2_V1) (or (not MW_S2_V3) W_S2_V3) (or (not MW_S2_V2) W_S2_V2) (or (not MW_S2_V5) W_S2_V5))))
 (or (not $x226) (not $x565) (and (= ?x5887 ?x3583) $x2525 (= ?x3145 ?x6072) $x2311 $x2061))))))))))))))))))))))))))))))))))))))))))))))))))))))))))))))))))))))))))))))))))))))))))))))))))))))))))))))))))))))))
 )
 )
 )
 )
 )
 )
 )
 )
 )
 )
 )
 )
 )
 )
 )
 )
 )
 )
 )
 )
 )
 )
 )
 )
 )
 )
 )
 )
 )
 )
 )
 )
 )
 )
 )
 )
 )
 )
 )
 )
 )
 )
 )
 )
 )
 )
 )
 )
 )
 )
 )
 )
 )
 )
 )
 )
 ))
 (let (($x3987 (not (or (and W_S2_V2 R_E1_V2) (and W_S2_V5 R_E1_V5) R_E1_V4))))
 (let (($x1140 (= DISJ_W_S2_R_E1 $x3987)))
 (let (($x1526 (and W_S2_V5 R_S2_V5)))
 (let (($x2117 (and W_S2_V2 R_S2_V2)))
 (let (($x89 (and W_S2_V3 R_S2_V3)))
 (let (($x5266 (and W_S2_V1 R_S2_V1)))
 (let (($x6026 (= DISJ_W_S2_R_S2 (not (or $x5266 $x89 $x2117 $x1526 R_S2_V4)))))
 (let (($x4871 (and W_S2_V5 R_S1_V5)))
 (let (($x960 (and W_S2_V2 R_S1_V2)))
 (let (($x2320 (and W_S2_V3 R_S1_V3)))
 (let (($x5507 (and W_S2_V1 R_S1_V1)))
 (let (($x4663 (= DISJ_W_S2_R_S1 (not (or $x5507 $x2320 $x960 $x4871 R_S1_V4)))))
 (let (($x6005 (= DISJ_W_S1_W_S2 (not (or W_S2_V3 (and W_S1_V5 W_S2_V5) W_S1_V4)))))
 (let (($x5964 (not R_E1_V3)))
 (let (($x1281 (not (or R_S2_V3 (and W_S1_V5 R_S2_V5) (and W_S1_V4 R_S2_V4)))))
 (let (($x1842 (= DISJ_W_S1_R_S2 $x1281)))
 (let (($x860 (not (or R_S1_V3 (and W_S1_V5 R_S1_V5) (and W_S1_V4 R_S1_V4)))))
 (let (($x2871 (= DISJ_W_S1_R_S1 $x860)))
 (let (($x1555 (not W_S2_V5)))
 (let (($x5878 (not W_S2_V2)))
 (let (($x1277 (not R_S2_V3)))
 (let (($x5795 (not R_S2_V1)))
 (let (($x5922 (and $x5795 $x1277 $x5878 $x1555 DISJ_W_S2_R_S1)))
 (let (($x2193 (not W_S2_V3)))
 (let (($x6073 (not R_S2_V5)))
 (let (($x3610 (and $x5795 $x6073 $x5878 $x2193 DISJ_W_S2_R_S1)))
 (let (($x2896 (and $x5795 $x5878 $x1555 $x2193 DISJ_W_S2_R_S1)))
 (let (($x1240 (and $x5795 $x1277 $x6073 $x5878 DISJ_W_S2_R_S1)))
 (let (($x1649 (not R_S2_V4)))
 (let (($x433 (and $x5795 $x1649 $x5878 $x1555 DISJ_W_S2_R_S1)))
 (let (($x2566 (and $x5795 $x6073 $x1649 $x5878 DISJ_W_S2_R_S1)))
 (let (($x4088 (and $x5795 $x1649 $x5878 $x2193 DISJ_W_S2_R_S1)))
 (let (($x2869 (and $x5795 $x1277 $x1649 $x5878 DISJ_W_S2_R_S1)))
 (let (($x671 (not W_S1_V4)))
 (let (($x994 (and $x6073 $x671 $x2193 DISJ_W_S2_R_S1)))
 (let (($x5791 (and $x6073 $x1649 $x2193 DISJ_W_S2_R_S1)))
 (let (($x2700 (and $x1649 (not W_S1_V5) $x2193 DISJ_W_S2_R_S1)))
 (let (($x1395 (and $x1649 $x1555 $x2193 DISJ_W_S2_R_S1)))
 (let (($x4154 (and DISJ_W_S1_W_S2 DISJ_W_S2_R_S1)))
 (let (($x2856 (and $x1277 $x671 $x1555 DISJ_W_S2_R_S1)))
 (let (($x2759 (and (not W_S2_V1) $x5878)))
 (let (($x873 (and $x1277 $x1649 $x1555 DISJ_W_S2_R_S1)))
 (let (($x2850 (and DISJ_W_S1_R_S2 DISJ_W_S2_R_S1)))
 (let (($x30 (and $x5878 DISJ_W_S2_R_S2)))
 (let (($x2018 (and DISJ_W_S2_R_S1 DISJ_W_S2_R_S2)))
 (let (($x5847 (or $x2018 $x30 $x2850 $x873 $x2759 $x2856 $x4154 $x1395 $x2700 $x5791 $x994 $x2869 $x4088 $x2566 $x433 $x1240 $x2896 $x3610 $x5922)))
 (let (($x2022 (not R_S1_V1)))
 (let (($x1970 (and $x2022 DISJ_W_S1_R_S1)))
 (let (($x4015 (and $x5878 DISJ_W_S2_R_S1 DISJ_W_S1_R_S1)))
 (let (($x4796 (or $x4015 $x2759 $x1970)))
 (let (($x6 (not W_S1_V2)))
 (let (($x2445 (not W_S1_V1)))
 (let (($x1722 (not R_E1_V1)))
 (and DISJ_W_S1_R_E1 $x1722 $x2445 $x6 $x4796 $x5847 W_S1_V3 W_S2_V4 $x2871 $x1842 $x5964 $x6005 $x4663 $x6026 $x1140 $x92 $x2612 $x191))))))))))))))))))))))))))))))))))))))))))))))))))))))))))
(check-sat)
